NAME : gr137.169022.tour
COMMENT : Cost = 31334_169022
COMMENT : Found by LKH [Keld Helsgaun] Thu Nov 16 17:33:42 2017
TYPE : TOUR
DIMENSION : 146
TOUR_SECTION
1
2
146
17
16
15
14
13
45
46
47
42
41
43
39
72
67
66
63
59
58
61
57
56
54
53
52
28
27
25
23
22
21
20
24
19
18
144
9
8
33
34
35
65
70
93
94
95
97
98
101
103
116
114
113
112
109
110
111
118
117
102
137
90
89
87
88
75
73
50
37
36
29
143
7
26
55
60
62
92
107
106
105
115
104
100
99
96
91
71
40
32
31
142
11
12
48
78
79
80
81
85
84
83
135
134
133
132
131
130
129
128
127
124
123
122
121
119
120
125
126
136
86
82
77
76
74
51
49
44
38
30
10
145
69
108
68
64
141
5
140
6
139
4
138
3
-1
EOF
